32	0

0	3	4	2	5
6	2	3	6
6	2	7	9
9	2	7	9
8	1	6
4	2	7	9
5	1	8
6	2	10	12
10	2	10	12
3	1	11
4	1	13
5	1	13
2	3	14	15	16
9	2	17	19
4	2	17	19
9	2	17	19
5	2	18	21
3	2	20	23
6	2	20	21
9	2	22	25
3	3	22	23	25
2	2	24	26
9	2	24	26
9	2	28	30
5	1	26
2	3	27	28	29
7	2	30	31
8	1	31
5	2	30	31
9	1	32
4	1	32
0	0
